\* Maximize profits *\

Maximize
f: 700 vc + 300 vs

Subject To
HeureParSemaine: 0.06 vc + 0.05 vs <= 60
Parking: 2.5 vc + vs <= 1500
ProdMaxCargo: vc <= 700

Bounds
0 <= vs
0 <= vc

Integer
vs
vc

End